networks/zoo_144_2983/zoo_144_2983-lower.txt
Number of groups: 72
Flow 1: {1 3 0} {3 59 0} {59 2 0} {2 75 0} 
Flow 105: {2 59 0} {59 63 0} {63 136 0} 
Flow 210: {5 7 0} {7 80 0} 
Flow 265: {6 7 0} {7 5 0} {5 78 0} 
Flow 330: {8 7 0} {7 4 0} {4 59 0} 
Flow 346: {9 15 0} {15 14 0} {14 13 0} {13 86 0} 
Flow 383: {10 14 0} {14 87 0} 
Flow 475: {11 12 0} {12 59 0} {59 70 0} {70 143 0} 
Flow 484: {12 11 0} {11 84 0} 
Flow 551: {13 14 0} {14 31 0} {31 104 0} 
Flow 599: {14 30 0} {30 103 0} 
Flow 708: {16 49 0} {49 20 0} {20 93 0} 
Flow 748: {17 18 0} {18 49 0} {49 26 0} {26 99 0} 
Flow 806: {19 49 0} {49 45 0} {45 118 0} 
Flow 840: {20 49 0} {49 50 0} {50 123 0} 
Flow 894: {21 49 0} {49 57 0} {57 130 0} 
Flow 985: {23 22 0} {22 49 0} {49 29 0} {29 102 0} 
Flow 1031: {24 49 0} {49 18 0} {18 17 0} {17 90 0} 
Flow 1081: {25 22 0} {22 23 0} {23 96 0} 
Flow 1095: {26 49 0} {49 42 0} {42 115 0} 
Flow 1109: {27 49 0} {49 16 0} {16 89 0} 
Flow 1138: {28 54 0} {54 59 0} {59 132 0} 
Flow 1167: {29 49 0} {49 34 0} {34 107 0} 
Flow 1213: {15 49 0} {49 21 0} {21 94 0} 
Flow 1222: {30 14 0} {14 32 0} {32 105 0} 
Flow 1259: {31 14 0} {14 15 0} {15 9 0} {9 82 0} 
Flow 1313: {32 14 0} {14 10 0} {10 83 0} 
Flow 1395: {33 36 0} {36 55 0} {55 128 0} 
Flow 1445: {34 46 0} {46 119 0} 
Flow 1484: {35 36 0} {36 109 0} 
Flow 1520: {22 25 0} {25 98 0} 
Flow 1537: {42 43 0} {43 116 0} 
Flow 1545: {36 51 0} {51 124 0} 
Flow 1595: {37 59 0} {59 71 0} {71 62 0} {62 135 0} 
Flow 1612: {38 36 0} {36 33 0} {33 106 0} 
Flow 1648: {39 36 0} {36 38 0} {38 111 0} 
Flow 1702: {40 41 0} {41 114 0} 
Flow 1712: {49 59 0} {59 36 0} {36 52 0} {52 125 0} 
Flow 1752: {41 40 0} {40 49 0} {49 48 0} {48 121 0} 
Flow 1823: {67 68 0} {68 141 0} 
Flow 1827: {44 49 0} {49 15 0} {15 88 0} 
Flow 1840: {45 49 0} {49 122 0} 
Flow 1865: {46 34 0} {34 49 0} {49 27 0} {27 100 0} 
Flow 1930: {47 59 0} {59 64 0} {64 137 0} 
Flow 1968: {48 49 0} {49 40 0} {40 113 0} 
Flow 2006: {18 91 0} 
Flow 2025: {59 37 0} {37 110 0} 
Flow 2045: {59 58 0} {58 131 0} 
Flow 2047: {42 60 0} {60 133 0} 
Flow 2048: {49 61 0} {61 134 0} 
Flow 2052: {64 65 0} {65 138 0} 
Flow 2074: {50 49 0} {49 19 0} {19 92 0} 
Flow 2138: {51 36 0} {36 39 0} {39 112 0} 
Flow 2176: {52 36 0} {36 35 0} {35 108 0} 
Flow 2196: {4 7 0} {7 6 0} {6 79 0} 
Flow 2196: {53 36 0} {36 59 0} 
Flow 2253: {54 28 0} {28 101 0} 
Flow 2324: {55 36 0} {36 53 0} {53 126 0} 
Flow 2360: {56 49 0} {49 44 0} {44 117 0} 
Flow 2386: {57 49 0} {49 24 0} {24 97 0} 
Flow 2418: {58 59 0} {59 67 0} {67 140 0} 
Flow 2421: {3 76 0} 
Flow 2484: {59 69 0} {69 142 0} 
Flow 2486: {71 144 0} 
Flow 2515: {60 42 0} {42 49 0} {49 56 0} {56 129 0} 
Flow 2523: {62 71 0} {71 59 0} {59 3 0} {3 1 0} {1 74 0} 
Flow 2625: {63 59 0} {59 66 0} {66 139 0} 
Flow 2721: {65 64 0} {64 59 0} {59 47 0} {47 120 0} 
Flow 2741: {66 59 0} {59 12 0} {12 85 0} 
Flow 2819: {68 67 0} {67 59 0} {59 54 0} {54 127 0} 
Flow 2825: {69 59 0} {59 4 0} {4 77 0} 
Flow 2892: {70 59 0} {59 49 0} {49 22 0} {22 95 0} 
Time taken running everything: 18 seconds
