networks/zoo_144_2983/zoo_144_2983-lower.sol
<?xml version = "1.0" encoding="UTF-8" standalone="yes"?>
<CPLEXSolution version="1.2">
 <header
   problemName="networks/zoo_144_2983/zoo_144_2983-lower.lp"
   solutionName="incumbent"
   solutionIndex="-1"
   objectiveValue="72"
   solutionTypeValue="3"
   solutionTypeString="primal"
   solutionStatusValue="101"
   solutionStatusString="integer optimal solution"
   solutionMethodString="mip"
   primalFeasible="1"
   dualFeasible="1"
   MIPNodes="0"
   MIPIterations="16"
   writeLevel="3"/>
 <quality
   epInt="1.0000000000000001e-05"
   epRHS="9.9999999999999995e-07"
   maxIntInfeas="0"
   maxPrimalInfeas="0"
   maxX="1"
   maxSlack="1"/>
 <variables>
  <variable name="Y(1,2)" index="1" value="1"/>
  <variable name="Y(105,63)" index="14726" value="1"/>
  <variable name="Y(210,7)" index="29475" value="1"/>
  <variable name="Y(265,5)" index="37228" value="1"/>
  <variable name="Y(330,4)" index="46392" value="1"/>
  <variable name="Y(346,13)" index="48657" value="1"/>
  <variable name="Y(383,14)" index="53875" value="1"/>
  <variable name="Y(475,70)" index="66903" value="1"/>
  <variable name="Y(484,11)" index="68113" value="1"/>
  <variable name="Y(551,31)" index="77580" value="1"/>
  <variable name="Y(599,30)" index="84347" value="1"/>
  <variable name="Y(708,20)" index="99706" value="1"/>
  <variable name="Y(748,26)" index="105352" value="1"/>
  <variable name="Y(806,45)" index="113549" value="1"/>
  <variable name="Y(840,50)" index="118348" value="1"/>
  <variable name="Y(894,57)" index="125969" value="1"/>
  <variable name="Y(985,29)" index="138772" value="1"/>
  <variable name="Y(1031,17)" index="145246" value="1"/>
  <variable name="Y(1081,23)" index="152302" value="1"/>
  <variable name="Y(1095,42)" index="154295" value="1"/>
  <variable name="Y(1109,16)" index="156243" value="1"/>
  <variable name="Y(1138,59)" index="160375" value="1"/>
  <variable name="Y(1167,34)" index="164439" value="1"/>
  <variable name="Y(1213,21)" index="170912" value="1"/>
  <variable name="Y(1222,32)" index="172192" value="1"/>
  <variable name="Y(1259,9)" index="177386" value="1"/>
  <variable name="Y(1313,10)" index="185001" value="1"/>
  <variable name="Y(1395,55)" index="196608" value="1"/>
  <variable name="Y(1445,46)" index="203649" value="1"/>
  <variable name="Y(1484,36)" index="209138" value="1"/>
  <variable name="Y(1520,25)" index="214203" value="1"/>
  <variable name="Y(1537,43)" index="216618" value="1"/>
  <variable name="Y(1545,51)" index="217754" value="1"/>
  <variable name="Y(1595,62)" index="224815" value="1"/>
  <variable name="Y(1612,33)" index="227183" value="1"/>
  <variable name="Y(1648,38)" index="232264" value="1"/>
  <variable name="Y(1702,41)" index="239881" value="1"/>
  <variable name="Y(1712,52)" index="241302" value="1"/>
  <variable name="Y(1752,48)" index="246938" value="1"/>
  <variable name="Y(1823,68)" index="256969" value="1"/>
  <variable name="Y(1827,15)" index="257480" value="1"/>
  <variable name="Y(1840,49)" index="259347" value="1"/>
  <variable name="Y(1865,27)" index="262850" value="1"/>
  <variable name="Y(1930,64)" index="272052" value="1"/>
  <variable name="Y(1968,40)" index="277386" value="1"/>
  <variable name="Y(2006,18)" index="282722" value="1"/>
  <variable name="Y(2025,37)" index="285420" value="1"/>
  <variable name="Y(2045,58)" index="288261" value="1"/>
  <variable name="Y(2047,60)" index="288545" value="1"/>
  <variable name="Y(2048,61)" index="288687" value="1"/>
  <variable name="Y(2052,65)" index="289255" value="1"/>
  <variable name="Y(2074,19)" index="292311" value="1"/>
  <variable name="Y(2138,39)" index="301355" value="1"/>
  <variable name="Y(2176,35)" index="306709" value="1"/>
  <variable name="Y(2196,6)" index="309500" value="1"/>
  <variable name="Y(2196,36)" index="309530" value="1"/>
  <variable name="Y(2253,28)" index="317559" value="1"/>
  <variable name="Y(2324,53)" index="327595" value="1"/>
  <variable name="Y(2360,44)" index="332662" value="1"/>
  <variable name="Y(2386,24)" index="336308" value="1"/>
  <variable name="Y(2418,67)" index="340863" value="1"/>
  <variable name="Y(2421,3)" index="341222" value="1"/>
  <variable name="Y(2484,69)" index="350171" value="1"/>
  <variable name="Y(2486,71)" index="350455" value="1"/>
  <variable name="Y(2515,56)" index="354529" value="1"/>
  <variable name="Y(2523,1)" index="355602" value="1"/>
  <variable name="Y(2625,66)" index="370049" value="1"/>
  <variable name="Y(2721,47)" index="383566" value="1"/>
  <variable name="Y(2741,12)" index="386351" value="1"/>
  <variable name="Y(2819,54)" index="397391" value="1"/>
  <variable name="Y(2825,4)" index="398187" value="1"/>
  <variable name="Y(2892,22)" index="407652" value="1"/>
  <variable name="X(1,3,1)" index="420603" value="1"/>
  <variable name="X(1,74,2523)" index="426108" value="1"/>
  <variable name="X(2,59,105)" index="426673" value="1"/>
  <variable name="X(2,75,1)" index="429552" value="1"/>
  <variable name="X(3,1,2523)" index="435057" value="1"/>
  <variable name="X(3,59,1)" index="435518" value="1"/>
  <variable name="X(3,76,2421)" index="440921" value="1"/>
  <variable name="X(4,7,2196)" index="443679" value="1"/>
  <variable name="X(4,59,330)" index="444796" value="1"/>
  <variable name="X(4,77,2825)" index="450274" value="1"/>
  <variable name="X(5,7,210)" index="450642" value="1"/>
  <variable name="X(5,78,265)" index="453680" value="1"/>
  <variable name="X(6,7,265)" index="456663" value="1"/>
  <variable name="X(6,79,2196)" index="461577" value="1"/>
  <variable name="X(7,4,330)" index="462694" value="1"/>
  <variable name="X(7,5,265)" index="465612" value="1"/>
  <variable name="X(7,6,2196)" index="470526" value="1"/>
  <variable name="X(7,80,210)" index="471523" value="1"/>
  <variable name="X(8,7,330)" index="474626" value="1"/>
  <variable name="X(9,15,346)" index="477625" value="1"/>
  <variable name="X(9,82,1259)" index="481521" value="1"/>
  <variable name="X(10,14,383)" index="483628" value="1"/>
  <variable name="X(10,83,1313)" index="487541" value="1"/>
  <variable name="X(11,12,475)" index="489686" value="1"/>
  <variable name="X(11,84,484)" index="492678" value="1"/>
  <variable name="X(12,11,484)" index="495661" value="1"/>
  <variable name="X(12,59,475)" index="498635" value="1"/>
  <variable name="X(12,85,2741)" index="503884" value="1"/>
  <variable name="X(13,14,551)" index="504677" value="1"/>
  <variable name="X(13,86,346)" index="507455" value="1"/>
  <variable name="X(14,10,1313)" index="511405" value="1"/>
  <variable name="X(14,13,346)" index="513421" value="1"/>
  <variable name="X(14,15,1259)" index="517317" value="1"/>
  <variable name="X(14,30,599)" index="519640" value="1"/>
  <variable name="X(14,31,551)" index="522575" value="1"/>
  <variable name="X(14,32,1222)" index="526229" value="1"/>
  <variable name="X(14,87,383)" index="528373" value="1"/>
  <variable name="X(15,9,1259)" index="532232" value="1"/>
  <variable name="X(15,14,346)" index="534302" value="1"/>
  <variable name="X(15,49,1213)" index="538152" value="1"/>
  <variable name="X(15,88,1827)" index="541749" value="1"/>
  <variable name="X(16,49,708)" index="543613" value="1"/>
  <variable name="X(16,89,1109)" index="546997" value="1"/>
  <variable name="X(17,18,748)" index="549619" value="1"/>
  <variable name="X(17,90,1031)" index="552885" value="1"/>
  <variable name="X(18,17,1031)" index="555868" value="1"/>
  <variable name="X(18,49,748)" index="558568" value="1"/>
  <variable name="X(18,91,2006)" index="562809" value="1"/>
  <variable name="X(19,49,806)" index="564592" value="1"/>
  <variable name="X(19,92,2074)" index="568843" value="1"/>
  <variable name="X(20,49,840)" index="570592" value="1"/>
  <variable name="X(20,93,708)" index="573443" value="1"/>
  <variable name="X(21,49,894)" index="576612" value="1"/>
  <variable name="X(21,94,1213)" index="579914" value="1"/>
  <variable name="X(22,23,1081)" index="582765" value="1"/>
  <variable name="X(22,25,1520)" index="586187" value="1"/>
  <variable name="X(22,49,985)" index="588635" value="1"/>
  <variable name="X(22,95,2892)" index="593525" value="1"/>
  <variable name="X(23,22,985)" index="594601" value="1"/>
  <variable name="X(23,96,1081)" index="597680" value="1"/>
  <variable name="X(24,49,1031)" index="600613" value="1"/>
  <variable name="X(24,97,2386)" index="604951" value="1"/>
  <variable name="X(25,22,1081)" index="606629" value="1"/>
  <variable name="X(25,98,1520)" index="610051" value="1"/>
  <variable name="X(26,49,1095)" index="612609" value="1"/>
  <variable name="X(26,99,748)" index="615245" value="1"/>
  <variable name="X(27,49,1109)" index="618589" value="1"/>
  <variable name="X(27,100,1865)" index="622328" value="1"/>
  <variable name="X(28,54,1138)" index="624584" value="1"/>
  <variable name="X(28,101,2253)" index="628682" value="1"/>
  <variable name="X(29,49,1167)" index="630579" value="1"/>
  <variable name="X(29,102,985)" index="633380" value="1"/>
  <variable name="X(30,14,1222)" index="636600" value="1"/>
  <variable name="X(30,103,599)" index="638960" value="1"/>
  <variable name="X(31,14,1259)" index="642603" value="1"/>
  <variable name="X(31,104,551)" index="644878" value="1"/>
  <variable name="X(32,14,1313)" index="648623" value="1"/>
  <variable name="X(32,105,1222)" index="651515" value="1"/>
  <variable name="X(33,36,1395)" index="654671" value="1"/>
  <variable name="X(33,106,1612)" index="657871" value="1"/>
  <variable name="X(34,46,1445)" index="660687" value="1"/>
  <variable name="X(34,49,1865)" index="664090" value="1"/>
  <variable name="X(34,107,1167)" index="666375" value="1"/>
  <variable name="X(35,36,1484)" index="669675" value="1"/>
  <variable name="X(35,108,2176)" index="673350" value="1"/>
  <variable name="X(36,33,1612)" index="675769" value="1"/>
  <variable name="X(36,35,2176)" index="679316" value="1"/>
  <variable name="X(36,38,1648)" index="681771" value="1"/>
  <variable name="X(36,39,2138)" index="685244" value="1"/>
  <variable name="X(36,51,1545)" index="687634" value="1"/>
  <variable name="X(36,52,1712)" index="690784" value="1"/>
  <variable name="X(36,53,2324)" index="694379" value="1"/>
  <variable name="X(36,55,1395)" index="696433" value="1"/>
  <variable name="X(36,59,2196)" index="700217" value="1"/>
  <variable name="X(36,109,1484)" index="702488" value="1"/>
  <variable name="X(37,59,1595)" index="705582" value="1"/>
  <variable name="X(37,110,2025)" index="708995" value="1"/>
  <variable name="X(38,36,1612)" index="711565" value="1"/>
  <variable name="X(38,111,1648)" index="714584" value="1"/>
  <variable name="X(39,36,1648)" index="717567" value="1"/>
  <variable name="X(39,112,2138)" index="721040" value="1"/>
  <variable name="X(40,41,1702)" index="723587" value="1"/>
  <variable name="X(40,49,1752)" index="726620" value="1"/>
  <variable name="X(40,113,1968)" index="729819" value="1"/>
  <variable name="X(41,40,1752)" index="732586" value="1"/>
  <variable name="X(41,114,1702)" index="735519" value="1"/>
  <variable name="X(42,43,1537)" index="738337" value="1"/>
  <variable name="X(42,49,2515)" index="742298" value="1"/>
  <variable name="X(42,60,2047)" index="744813" value="1"/>
  <variable name="X(42,115,1095)" index="746844" value="1"/>
  <variable name="X(43,116,1537)" index="750269" value="1"/>
  <variable name="X(44,49,1827)" index="753542" value="1"/>
  <variable name="X(44,117,2360)" index="757058" value="1"/>
  <variable name="X(45,49,1840)" index="759521" value="1"/>
  <variable name="X(45,118,806)" index="761470" value="1"/>
  <variable name="X(46,34,1865)" index="765512" value="1"/>
  <variable name="X(46,119,1445)" index="768075" value="1"/>
  <variable name="X(47,59,1930)" index="771543" value="1"/>
  <variable name="X(47,120,2721)" index="775317" value="1"/>
  <variable name="X(48,49,1968)" index="777547" value="1"/>
  <variable name="X(48,121,1752)" index="780314" value="1"/>
  <variable name="X(49,15,1827)" index="783372" value="1"/>
  <variable name="X(49,16,1109)" index="785637" value="1"/>
  <variable name="X(49,18,1031)" index="788542" value="1"/>
  <variable name="X(49,19,2074)" index="792568" value="1"/>
  <variable name="X(49,20,708)" index="794185" value="1"/>
  <variable name="X(49,21,1213)" index="797673" value="1"/>
  <variable name="X(49,22,2892)" index="802335" value="1"/>
  <variable name="X(49,24,2386)" index="804812" value="1"/>
  <variable name="X(49,26,748)" index="806157" value="1"/>
  <variable name="X(49,27,1865)" index="810257" value="1"/>
  <variable name="X(49,29,985)" index="812360" value="1"/>
  <variable name="X(49,34,1167)" index="815525" value="1"/>
  <variable name="X(49,40,1968)" index="819309" value="1"/>
  <variable name="X(49,42,1095)" index="821419" value="1"/>
  <variable name="X(49,44,2360)" index="825667" value="1"/>
  <variable name="X(49,45,806)" index="827096" value="1"/>
  <variable name="X(49,48,1752)" index="831025" value="1"/>
  <variable name="X(49,50,840)" index="833096" value="1"/>
  <variable name="X(49,56,2515)" index="837754" value="1"/>
  <variable name="X(49,57,894)" index="839116" value="1"/>
  <variable name="X(49,59,1712)" index="842917" value="1"/>
  <variable name="X(49,61,2048)" index="846236" value="1"/>
  <variable name="X(49,122,1840)" index="849011" value="1"/>
  <variable name="X(50,49,2074)" index="852228" value="1"/>
  <variable name="X(50,123,840)" index="853977" value="1"/>
  <variable name="X(51,36,2138)" index="858258" value="1"/>
  <variable name="X(51,124,1545)" index="860648" value="1"/>
  <variable name="X(52,36,2176)" index="864262" value="1"/>
  <variable name="X(52,125,1712)" index="866781" value="1"/>
  <variable name="X(53,36,2196)" index="870248" value="1"/>
  <variable name="X(53,126,2324)" index="873359" value="1"/>
  <variable name="X(54,28,2253)" index="876271" value="1"/>
  <variable name="X(54,59,1138)" index="878139" value="1"/>
  <variable name="X(54,127,2819)" index="882803" value="1"/>
  <variable name="X(55,36,2324)" index="885291" value="1"/>
  <variable name="X(55,128,1395)" index="887345" value="1"/>
  <variable name="X(56,49,2360)" index="891293" value="1"/>
  <variable name="X(56,129,2515)" index="894431" value="1"/>
  <variable name="X(57,49,2386)" index="897285" value="1"/>
  <variable name="X(57,130,894)" index="898776" value="1"/>
  <variable name="X(58,59,2418)" index="903283" value="1"/>
  <variable name="X(58,131,2045)" index="905893" value="1"/>
  <variable name="X(59,2,1)" index="906832" value="1"/>
  <variable name="X(59,3,2523)" index="912337" value="1"/>
  <variable name="X(59,4,2825)" index="915622" value="1"/>
  <variable name="X(59,12,2741)" index="918521" value="1"/>
  <variable name="X(59,36,1712)" index="920475" value="1"/>
  <variable name="X(59,37,2025)" index="923771" value="1"/>
  <variable name="X(59,47,2721)" index="927450" value="1"/>
  <variable name="X(59,49,2892)" index="930604" value="1"/>
  <variable name="X(59,54,2819)" index="933514" value="1"/>
  <variable name="X(59,58,2045)" index="935723" value="1"/>
  <variable name="X(59,63,105)" index="936766" value="1"/>
  <variable name="X(59,64,1930)" index="941574" value="1"/>
  <variable name="X(59,66,2625)" index="945252" value="1"/>
  <variable name="X(59,67,2418)" index="948028" value="1"/>
  <variable name="X(59,69,2484)" index="951077" value="1"/>
  <variable name="X(59,70,475)" index="952051" value="1"/>
  <variable name="X(59,71,1595)" index="956154" value="1"/>
  <variable name="X(59,132,1138)" index="958680" value="1"/>
  <variable name="X(60,42,2515)" index="963040" value="1"/>
  <variable name="X(60,133,2047)" index="965555" value="1"/>
  <variable name="X(61,134,2048)" index="968539" value="1"/>
  <variable name="X(62,71,2523)" index="971997" value="1"/>
  <variable name="X(62,135,1595)" index="974052" value="1"/>
  <variable name="X(63,59,2625)" index="978065" value="1"/>
  <variable name="X(63,136,105)" index="978528" value="1"/>
  <variable name="X(64,59,2721)" index="984127" value="1"/>
  <variable name="X(64,65,2052)" index="986441" value="1"/>
  <variable name="X(64,137,1930)" index="989302" value="1"/>
  <variable name="X(65,64,2721)" index="993076" value="1"/>
  <variable name="X(65,138,2052)" index="995390" value="1"/>
  <variable name="X(66,59,2741)" index="999062" value="1"/>
  <variable name="X(66,139,2625)" index="1001929" value="1"/>
  <variable name="X(67,59,2819)" index="1005106" value="1"/>
  <variable name="X(67,68,1823)" index="1007093" value="1"/>
  <variable name="X(67,140,2418)" index="1010671" value="1"/>
  <variable name="X(68,67,2819)" index="1014055" value="1"/>
  <variable name="X(68,141,1823)" index="1016042" value="1"/>
  <variable name="X(69,59,2825)" index="1020027" value="1"/>
  <variable name="X(69,142,2484)" index="1022669" value="1"/>
  <variable name="X(70,59,2892)" index="1026060" value="1"/>
  <variable name="X(70,143,475)" index="1026626" value="1"/>
  <variable name="X(71,59,2523)" index="1031657" value="1"/>
  <variable name="X(71,62,1595)" index="1033712" value="1"/>
  <variable name="X(71,144,2486)" index="1037586" value="1"/>
 </variables>
</CPLEXSolution>
